s = 8;
c = 6;

maxCap = [100, 100, 100, 90, 90, 80, 80, 80];
demanda = [100, 100, 100, 50, 80, 100];
maxUC = [75, 60, 50, 40, 50 ,80];

% ejercicio 2
costeComputoServidor = [1, 2, 3, 4, 4, 3, 2, 1];
costeComputoCliente = [2, 1, 2, 1, 2, 2];
